12 16 9 10
19 17 19 4 4 9 5 1 2 16 7 10 17 2 2 11 
2.11 5.33 0.06 7.26 2.29 1.55 6.93 6.53 3.57 7.3 0.69 5.19 6.5 7.15 7.78 3.24 
3.17 4.85 3.19 6.64 0.52 0.74 3.16 5.25 0.01 0.96 7.83 1.76 4.43 3.58 3.93 2.36 
1.86 6.37 3.1 4.78 6.99 5.69 6.38 0.62 5.25 1.12 7.84 3.15 6.56 1.75 2.84 7.26 
1.84 4.74 6.61 1.16 3.71 7.56 3.91 7.06 0.81 6.96 1.27 6.36 5.93 1.27 2.01 2.36 
6.77 5.1 3.8 1.04 1.9 4.26 4.19 4.43 5.33 4.79 5.15 0.14 6.18 7.98 5.54 1.11 
1.84 5.44 0.12 6.8 1.59 7.49 2.57 0.42 1.43 5.24 0.95 5.93 4.36 6.28 0.24 5.95 
2.85 1.03 6.29 1.06 4.11 2.16 1.44 4.82 0.75 7.04 5.5 3.76 7.55 3.74 2.57 0.09 
0.35 6.97 1.08 2.27 4.99 1.87 0.76 6.99 7.23 4.11 0.36 6.95 0.43 0.98 4.54 2.09 
3.76 6.86 5.2 1.23 2.46 1.56 2.64 5.3 5.52 1.49 6.41 0.24 3.59 1.2 6.39 0.34 
4 4 4 4 4 4 4 4 4 4 4 4 4 4 4 4 
5.45 4.6 2.9 0.26 5.48 6.84 5.78 2.59 2.03 1.02 4.32 5.98 3.24 1.16 2.81 0.87 
4.41 2.06 4.55 7.21 2.15 5.98 6.06 1.89 7.72 4.95 5.03 3.82 5.57 2.61 3.29 1.07 
1 1 1 1 1 1 1 1 1 1 1 1 1 1 1 1 
1 1 1 1 1 1 1 1 1 1 1 1 1 1 1 1 
1 1 1 1 1 1 1 1 1 1 1 1 1 1 1 1 
1 1 1 1 1 1 1 1 1 1 1 1 1 1 1 1 
1 1 1 1 1 1 1 1 1 1 1 1 1 1 1 1 
1 1 1 1 1 1 1 1 1 1 1 1 1 1 1 1 
1 1 1 1 1 1 1 1 1 1 1 1 1 1 1 1 
1 1 1 1 1 1 1 1 1 1 1 1 1 1 1 1 
1 1 1 1 1 1 1 1 1 1 1 1 1 1 1 1 
1 1 1 1 1 1 1 1 1 1 1 1 1 1 1 1 
1 1 1 1 1 1 1 1 1 1 1 1 1 1 1 1 
1 1 1 1 1 1 1 1 1 1 1 1 1 1 1 1 
0.01 0.01 0.01 0.01 0.01 0.01 0.01 0.01 0.01 0.01 0.01 0.01 0.01 0.01 0.01 0.01 
0.02 0.02 0.02 0.02 0.02 0.02 0.02 0.02 0.02 0.02 0.02 0.02 0.02 0.02 0.02 0.02 
0.03 0.03 0.03 0.03 0.03 0.03 0.03 0.03 0.03 0.03 0.03 0.03 0.03 0.03 0.03 0.03 
0.04 0.04 0.04 0.04 0.04 0.04 0.04 0.04 0.04 0.04 0.04 0.04 0.04 0.04 0.04 0.04 
0.05 0.05 0.05 0.05 0.05 0.05 0.05 0.05 0.05 0.05 0.05 0.05 0.05 0.05 0.05 0.05 
0.06 0.06 0.06 0.06 0.06 0.06 0.06 0.06 0.06 0.06 0.06 0.06 0.06 0.06 0.06 0.06 
0.07 0.07 0.07 0.07 0.07 0.07 0.07 0.07 0.07 0.07 0.07 0.07 0.07 0.07 0.07 0.07 
0.08 0.08 0.08 0.08 0.08 0.08 0.08 0.08 0.08 0.08 0.08 0.08 0.08 0.08 0.08 0.08 
0.09 0.09 0.09 0.09 0.09 0.09 0.09 0.09 0.09 0.09 0.09 0.09 0.09 0.09 0.09 0.09 
0.1 0.1 0.1 0.1 0.1 0.1 0.1 0.1 0.1 0.1 0.1 0.1 0.1 0.1 0.1 0.1 
0.5 0.5 0.5 0.5 0.5 0.5 0.5 0.5 0.5 0.5 0.5 0.5 0.5 0.5 0.5 0.5 
1 1 1 1 1 1 1 1 1 1 1 1 1 1 1 1 
